db/data/758323548970092092366514565262014994.z3.out
sat
-------------------
20.893697084
